Instance name: /home/cuong/CLionProjects/uMV-FSTSP/50_dis_rand_ins/v54
Write arg val: 1

drone speed: 1 miles/minute
uav non-eligible customer: 11 
Printing tau:
0 24.629 46.0476 65.4331 70.7879 59.9665 74.686 58.7553 52.8693 90.5408 94.8212 0 
24.629 0 58.0865 57.23 53.521 42.6996 57.4191 41.4884 29.5017 73.2738 77.5542 24.629 
46.0476 58.0865 0 19.3855 33.3536 20.7945 40.4307 67.8489 86.3268 44.4931 48.7735 46.0476 
65.4331 57.23 19.3855 0 32.4972 19.938 39.5742 66.9924 85.4703 30.1919 29.3881 65.4331 
70.7879 53.521 33.3536 32.4972 0 12.5592 7.077 34.4952 52.9732 19.7528 24.0332 70.7879 
59.9665 42.6996 20.7945 19.938 12.5592 0 19.6362 47.0544 65.5323 30.5742 34.8546 59.9665 
74.686 57.4191 40.4307 39.5742 7.077 19.6362 0 27.4182 45.8961 15.8548 20.1352 74.686 
58.7553 41.4884 67.8489 66.9924 34.4952 47.0544 27.4182 0 18.4779 36.8004 38.8017 58.7553 
52.8693 29.5017 86.3268 85.4703 52.9732 65.5323 45.8961 18.4779 0 55.2784 57.2796 52.8693 
90.5408 73.2738 44.4931 30.1919 19.7528 30.5742 15.8548 36.8004 55.2784 0 4.28041 90.5408 
94.8212 77.5542 48.7735 29.3881 24.0332 34.8546 20.1352 38.8017 57.2796 4.28041 0 94.8212 
0 0 0 0 0 0 0 0 0 0 0 0 
Printing tau_prime:
0 7.97585 15.093 19.3848 18.7705 16.2517 19.8902 18.0526 18.7171 24.0167 25.1704 0 
7.97585 0 17.1895 19.8347 15.634 15.0327 15.9291 11.3017 10.8292 20.7102 21.959 7.97585 
15.093 17.1895 0 5.14536 11.0117 6.6352 13.1378 18.304 22.8916 14.3866 15.0529 15.093 
19.3848 19.8347 5.14536 0 8.73331 5.48197 10.7767 17.8521 23.1978 10.4124 10.7984 19.3848 
18.7705 15.634 11.0117 8.73331 0 4.39595 2.14241 9.68743 15.4231 5.27331 6.47428 18.7705 
16.2517 15.0327 6.6352 5.48197 4.39595 0 6.50731 12.4813 17.7258 8.55101 9.49777 16.2517 
19.8902 15.9291 13.1378 10.7767 2.14241 6.50731 0 8.40847 14.2447 4.88508 6.13333 19.8902 
18.0526 11.3017 18.304 17.8521 9.68743 12.4813 8.40847 0 5.84035 12.8942 14.047 18.0526 
18.7171 10.8292 22.8916 23.1978 15.4231 17.7258 14.2447 5.84035 0 18.6969 19.8254 18.7171 
24.0167 20.7102 14.3866 10.4124 5.27331 8.55101 4.88508 12.8942 18.6969 0 1.25294 24.0167 
25.1704 21.959 15.0529 10.7984 6.47428 9.49777 6.13333 14.047 19.8254 1.25294 0 25.1704 
0 0 0 0 0 0 0 0 0 0 0 0 
Version identifier: 22.1.1.0 | 2022-11-28 | 9160aff4d
CPXPARAM_MIP_Tolerances_Integrality              0
Tried aggregator 1 time.
MIP Presolve eliminated 1 rows and 12 columns.
MIP Presolve modified 20 coefficients.
Reduced MIP has 122 rows, 120 columns, and 510 nonzeros.
Reduced MIP has 110 binaries, 0 generals, 0 SOSs, and 0 indicators.
Presolve time = 0.00 sec. (0.27 ticks)
Found incumbent of value 455.465200 after 0.00 sec. (0.75 ticks)
Probing time = 0.00 sec. (0.26 ticks)
Cover probing fixed 0 vars, tightened 10 bounds.
Tried aggregator 1 time.
Detecting symmetries...
MIP Presolve eliminated 10 rows and 0 columns.
MIP Presolve modified 180 coefficients.
Reduced MIP has 112 rows, 120 columns, and 490 nonzeros.
Reduced MIP has 110 binaries, 0 generals, 0 SOSs, and 0 indicators.
Presolve time = 0.00 sec. (0.35 ticks)
Probing time = 0.00 sec. (0.26 ticks)
Clique table members: 67.
MIP emphasis: balance optimality and feasibility.
MIP search method: dynamic search.
Parallel mode: deterministic, using up to 20 threads.
Root relaxation solution time = 0.00 sec. (0.19 ticks)

        Nodes                                         Cuts/
   Node  Left     Objective  IInf  Best Integer    Best Bound    ItCnt     Gap

*     0+    0                          455.4652        0.0000           100.00%
      0     0      179.8360    23      455.4652      179.8360       20   60.52%
*     0+    0                          280.4208      179.8360            35.87%
      0     0      236.5528    22      280.4208      Cuts: 25       42   15.64%
*     0+    0                          236.5528      236.5528             0.00%
      0     0        cutoff            236.5528                     42    0.00%
Elapsed time = 0.10 sec. (4.15 ticks, tree = 0.01 MB, solutions = 3)

Clique cuts applied:  4
Implied bound cuts applied:  4
Mixed integer rounding cuts applied:  1
Multi commodity flow cuts applied:  6
Gomory fractional cuts applied:  1

Root node processing (before b&c):
  Real time             =    0.10 sec. (4.16 ticks)
Parallel b&c, 20 threads:
  Real time             =    0.00 sec. (0.00 ticks)
  Sync time (average)   =    0.00 sec.
  Wait time (average)   =    0.00 sec.
                          ------------
Total (root+branch&cut) =    0.10 sec. (4.16 ticks)

TSP solution for this instance: 0 1 8 7 10 9 6 4 5 3 2 11 
12
Warmstart X[1][0] == 1
Warmstart X[2][1] == 1
Warmstart X[3][8] == 1
Warmstart X[4][7] == 1
Warmstart X[5][10] == 1
Warmstart X[6][9] == 1
Warmstart X[7][6] == 1
Warmstart X[8][4] == 1
Warmstart X[9][5] == 1
Warmstart X[10][3] == 1
Warmstart X[11][2] == 1
---------------------------------------------
Calculate max stage gap for sortie.... 
Stage gap of 5 with smallest length = 21.402 violated endurance constraint!
---------------------------------------------
Variable z[1][6] was set to 0.
Variable z[1][7] was set to 0.
Variable z[1][8] was set to 0.
Variable z[1][9] was set to 0.
Variable z[1][10] was set to 0.
Variable z[1][11] was set to 0.
Variable z[1][12] was set to 0.
Variable z[2][7] was set to 0.
Variable z[2][8] was set to 0.
Variable z[2][9] was set to 0.
Variable z[2][10] was set to 0.
Variable z[2][11] was set to 0.
Variable z[2][12] was set to 0.
Variable z[3][8] was set to 0.
Variable z[3][9] was set to 0.
Variable z[3][10] was set to 0.
Variable z[3][11] was set to 0.
Variable z[3][12] was set to 0.
Variable z[4][9] was set to 0.
Variable z[4][10] was set to 0.
Variable z[4][11] was set to 0.
Variable z[4][12] was set to 0.
Variable z[5][10] was set to 0.
Variable z[5][11] was set to 0.
Variable z[5][12] was set to 0.
Variable z[6][11] was set to 0.
Variable z[6][12] was set to 0.
Variable z[7][12] was set to 0.
Num constraint added = 5940
Warning:  Output names have been modified due to duplicate names or characters invalid in LP format.
Version identifier: 22.1.1.0 | 2022-11-28 | 9160aff4d
CPXPARAM_TimeLimit                               200
CPXPARAM_MIP_Tolerances_Integrality              0
1 of 1 MIP starts provided solutions.
MIP start 'm1' defined initial solution with objective 236.5528.
Tried aggregator 2 times.
MIP Presolve eliminated 7147 rows and 1873 columns.
MIP Presolve modified 2483 coefficients.
Aggregator did 33 substitutions.
Reduced MIP has 1438 rows, 2870 columns, and 50434 nonzeros.
Reduced MIP has 2849 binaries, 0 generals, 0 SOSs, and 0 indicators.
Presolve time = 0.07 sec. (176.42 ticks)
Probing fixed 264 vars, tightened 0 bounds.
Probing changed sense of 5 constraints.
Probing time = 0.04 sec. (91.64 ticks)
Cover probing fixed 0 vars, tightened 43 bounds.
Tried aggregator 2 times.
Detecting symmetries...
MIP Presolve eliminated 61 rows and 264 columns.
MIP Presolve modified 341 coefficients.
Aggregator did 21 substitutions.
Reduced MIP has 1355 rows, 2585 columns, and 40928 nonzeros.
Reduced MIP has 2564 binaries, 0 generals, 0 SOSs, and 0 indicators.
Presolve time = 0.04 sec. (79.29 ticks)
Probing time = 0.00 sec. (5.17 ticks)
Cover probing fixed 0 vars, tightened 20 bounds.
Clique table members: 8749.
MIP emphasis: balance optimality and feasibility.
MIP search method: dynamic search.
Parallel mode: deterministic, using up to 20 threads.
Root relaxation solution time = 0.14 sec. (272.17 ticks)

        Nodes                                         Cuts/
   Node  Left     Objective  IInf  Best Integer    Best Bound    ItCnt     Gap

*     0+    0                          236.5528       24.6290            89.59%
      0     0      164.9233   140      236.5528      164.9233       38   30.28%
*     0+    0                          226.0753      164.9233            27.05%
      0     0      167.1363   183      226.0753      Cuts: 32     1308   26.07%
      0     0      169.4468   246      226.0753      Cuts: 54     3771   22.36%
      0     0      170.7924   216      226.0753      Cuts: 32     5067   22.36%
*     0+    0                          216.9272      175.5283            19.08%
      0     0      171.7761   240      216.9272      Cuts: 40     7184   17.09%
      0     0      172.2239   291      216.9272      Cuts: 40     8131   17.09%
Detecting symmetries...
      0     0      172.3722   304      216.9272      Cuts: 17     8912   17.09%
Detecting symmetries...
      0     2      172.3722   304      216.9272      179.8530     8912   17.09%
Elapsed time = 1.75 sec. (3666.75 ticks, tree = 0.02 MB, solutions = 3)
      2     3      174.9708   242      216.9272      179.8530    10821   17.09%
      5     4      181.7030   154      216.9272      179.8530    14478   17.09%
     62     8        cutoff            216.9272      184.5264    32397   14.94%
    225     8      213.9177    66      216.9272      184.7723    50834   14.82%
    236     5      192.5928    48      216.9272      184.7723    55747   14.82%
    432    15    infeasible            216.9272      189.1324    75110   12.81%
*   634    25      integral     0      215.5283      189.1324    88358   12.25%
    786     9      201.9148    82      215.5283      193.9127   107824   10.03%
    830     5        cutoff            215.5283      198.1551   119560    8.06%

GUB cover cuts applied:  5
Clique cuts applied:  1
Cover cuts applied:  33
Implied bound cuts applied:  26
Flow cuts applied:  1
Mixed integer rounding cuts applied:  2
Zero-half cuts applied:  21
Lift and project cuts applied:  1
Gomory fractional cuts applied:  1

Root node processing (before b&c):
  Real time             =    1.69 sec. (3542.95 ticks)
Parallel b&c, 20 threads:
  Real time             =    1.68 sec. (2756.92 ticks)
  Sync time (average)   =    1.30 sec.
  Wait time (average)   =    0.00 sec.
                          ------------
Total (root+branch&cut) =    3.37 sec. (6299.87 ticks)
Feasible solution found!
Truck nodes:
Stage 1 at customer 0 with arrival time is: 0
Stage 1 at customer 0 with departure time is: 0
Stage 2 at customer 2 with arrival time is: 46.0476
Stage 2 at customer 2 with departure time is: 46.0476
Stage 3 at customer 3 with arrival time is: 65.4331
Stage 3 at customer 3 with departure time is: 65.4331
Stage 4 at customer 5 with arrival time is: 85.3711
Stage 4 at customer 5 with departure time is: 86.3711
Stage 5 at customer 4 with arrival time is: 98.9303
Stage 5 at customer 4 with departure time is: 104.343
Stage 6 at customer 6 with arrival time is: 111.42
Stage 6 at customer 6 with departure time is: 115.502
Stage 7 at customer 7 with arrival time is: 142.92
Stage 7 at customer 7 with departure time is: 142.92
Stage 8 at customer 8 with arrival time is: 161.398
Stage 8 at customer 8 with departure time is: 161.398
Stage 9 at customer 1 with arrival time is: 190.899
Stage 9 at customer 1 with departure time is: 190.899
Stage 10 at customer 11 with arrival time is: 215.528
Stage 10 at customer 11 with departure time is: 215.528
Truck arcs:
Arc 1 connecting 0 and 2 with cost 46.0476 
Arc 2 connecting 2 and 3 with cost 19.3855 
Arc 3 connecting 3 and 5 with cost 19.938 
Arc 4 connecting 5 and 4 with cost 12.5592 
Arc 5 connecting 4 and 6 with cost 7.077 
Arc 6 connecting 6 and 7 with cost 27.4182 
Arc 7 connecting 7 and 8 with cost 18.4779 
Arc 8 connecting 8 and 1 with cost 29.5017 
Arc 9 connecting 1 and 11 with cost 24.629 
Customer 9 served by drone.
Drone fly from 4 at stage 5 to serve 9 and then fly back to 6 at stage 6. 
Truck arcs during this sortie: 4--->6
Truck travel time from stage 5 to 6 is: 7.077
Total drone travel time: 10.1584
Drone arrival time: 114.502
Truck arrival time: 111.42
Truck departure time = max(d/a, t/a) plus (sl/sr): 115.502
Customer 10 served by drone.
Drone fly from 5 at stage 4 to serve 10 and then fly back to 4 at stage 5. 
Truck arcs during this sortie: 5--->4
Truck travel time from stage 4 to 5 is: 12.5592
Total drone travel time: 15.972
Drone arrival time: 102.343
Truck arrival time: 98.9303
Truck departure time = max(d/a, t/a) plus (sl/sr): 104.343
Done!
-------------------------Re-calculated objective-----------------------
215.528
------------------------------------------------------------------------
Solve time: 3.369
OBJECTIVE VALUE: 215.528, NUMBER OF SORTIES: 2.
Number of revisit: 0
In write mode
